HUN,8,6,88
1,23,5,25,0,22,4,25,2,27,3,25
5,24,3,30,2,22,1,26,4,30,0,27
3,24,1,24,0,21,2,29,5,27,4,30
2,27,3,25,4,28,0,22,5,29,1,26
4,30,3,23,0,26,2,25,1,27,5,23
3,24,1,29,2,23,4,25,5,27,0,28
3,27,5,29,4,27,0,27,1,30,2,27
2,23,3,25,4,26,1,26,5,29,0,22
